(set-logic QF_BV)
(declare-fun CLK_1 () (_ BitVec 1))
(declare-fun CLK_2 () (_ BitVec 1))
(declare-fun CLK_3 () (_ BitVec 1))
(declare-fun RESET_1 () (_ BitVec 1))
(declare-fun RESET_2 () (_ BitVec 1))
(declare-fun RESET_3 () (_ BitVec 1))
(declare-fun TIMETCK_1 () (_ BitVec 1))
(declare-fun TIMETCK_2 () (_ BitVec 1))
(declare-fun VERNDACLOAD_1 () (_ BitVec 1))
(declare-fun VERNDACLOAD_0 () (_ BitVec 1))
(declare-fun autoname_1 () (_ BitVec 4))
(define-fun $e1 () (_ BitVec 4) (_ bv0 4))
(define-fun $e2 () (_ BitVec 4) (_ bv14 4))
(define-fun $e3 () (_ BitVec 4) (_ bv2 4))
(define-fun $e4 () (_ BitVec 1) (ite (= CLK_1 CLK_2) #b1 #b0))
(define-fun $e5 () (_ BitVec 1) (ite (= RESET_1 RESET_2) #b1 #b0))
(define-fun $e6 () (_ BitVec 1) (bvand $e4 $e5))
(define-fun $e7 () (_ BitVec 1) (bvand CLK_1 (bvnot $e4)))
(define-fun $e8 () (_ BitVec 1) (ite (= CLK_2 CLK_3) #b1 #b0))
(define-fun $e9 () (_ BitVec 1) (ite (= RESET_2 RESET_3) #b1 #b0))
(define-fun $e10 () (_ BitVec 1) (bvand $e8 $e9))
(define-fun $e11 () (_ BitVec 1) (bvand CLK_2 (bvnot $e8)))
(define-fun $e12 () (_ BitVec 1) (ite (= autoname_1 $e1) #b1 #b0))
(define-fun $e13 () (_ BitVec 1) (ite (= autoname_1 (bvnot $e2)) #b1 #b0))
(define-fun $e14 () (_ BitVec 1) (ite (= autoname_1 $e3) #b1 #b0))
(define-fun $e15 () (_ BitVec 1) (bvand (bvnot $e12) (bvnot $e14)))
(define-fun $e16 () (_ BitVec 1) (bvand (bvnot $e13) (bvnot $e15)))
(define-fun $e17 () (_ BitVec 1) (bvand TIMETCK_2 $e12))
(define-fun $e18 () (_ BitVec 1) (bvand (bvnot $e12) (bvnot $e16)))
(define-fun $e19 () (_ BitVec 1) (bvand (bvnot $e17) (bvnot $e18)))
(define-fun $e20 () (_ BitVec 1) (bvand $e11 (bvnot $e19)))
(define-fun $e21 () (_ BitVec 1) (bvand (bvnot $e11) (bvnot $e12)))
(define-fun $e22 () (_ BitVec 1) (bvand (bvnot $e20) (bvnot $e21)))
(define-fun $e23 () (_ BitVec 1) (bvand (bvnot RESET_2) (bvnot $e22)))
(define-fun $e24 () (_ BitVec 1) (bvand $e10 (bvnot $e12)))
(define-fun $e25 () (_ BitVec 1) (bvand (bvnot $e10) $e23))
(define-fun $e26 () (_ BitVec 1) (bvand (bvnot $e24) (bvnot $e25)))
(define-fun $e27 () (_ BitVec 1) (ite (= VERNDACLOAD_1 VERNDACLOAD_0) #b1 #b0))
(define-fun $e28 () (_ BitVec 1) (bvand TIMETCK_1 VERNDACLOAD_0))
(define-fun $e29 () (_ BitVec 1) (bvand (bvnot TIMETCK_1) (bvnot $e27)))
(define-fun $e30 () (_ BitVec 1) (bvand (bvnot $e28) (bvnot $e29)))
(define-fun $e31 () (_ BitVec 1) (bvand $e11 (bvnot $e17)))
(define-fun $e32 () (_ BitVec 1) (bvand (bvnot $e11) (bvnot $e13)))
(define-fun $e33 () (_ BitVec 1) (bvand (bvnot $e31) (bvnot $e32)))
(define-fun $e34 () (_ BitVec 1) (bvand (bvnot RESET_2) $e33))
(define-fun $e35 () (_ BitVec 1) (bvand $e10 (bvnot $e13)))
(define-fun $e36 () (_ BitVec 1) (bvand (bvnot $e10) (bvnot $e34)))
(define-fun $e37 () (_ BitVec 1) (bvand (bvnot $e35) (bvnot $e36)))
(define-fun $e38 () (_ BitVec 1) (bvand $e11 (bvnot $e13)))
(define-fun $e39 () (_ BitVec 1) (bvand (bvnot $e11) (bvnot $e14)))
(define-fun $e40 () (_ BitVec 1) (bvand (bvnot $e38) (bvnot $e39)))
(define-fun $e41 () (_ BitVec 1) (bvand (bvnot RESET_2) $e40))
(define-fun $e42 () (_ BitVec 1) (bvand $e10 (bvnot $e14)))
(define-fun $e43 () (_ BitVec 1) (bvand (bvnot $e10) (bvnot $e41)))
(define-fun $e44 () (_ BitVec 1) (bvand (bvnot $e42) (bvnot $e43)))
(define-fun $e45 () (_ BitVec 1) (bvand (bvnot VERNDACLOAD_0) $e44))
(define-fun $e46 () (_ BitVec 1) (bvand (bvnot $e27) (bvnot $e44)))
(define-fun $e47 () (_ BitVec 1) (bvand (bvnot $e45) (bvnot $e46)))
(define-fun $e48 () (_ BitVec 1) (bvand VERNDACLOAD_0 $e37))
(define-fun $e49 () (_ BitVec 1) (bvand (bvnot $e37) (bvnot $e47)))
(define-fun $e50 () (_ BitVec 1) (bvand (bvnot $e48) (bvnot $e49)))
(define-fun $e51 () (_ BitVec 1) (bvand $e26 (bvnot $e30)))
(define-fun $e52 () (_ BitVec 1) (bvand (bvnot $e26) (bvnot $e50)))
(define-fun $e53 () (_ BitVec 1) (bvand (bvnot $e51) (bvnot $e52)))
(define-fun $e54 () (_ BitVec 1) (bvand $e7 (bvnot $e53)))
(define-fun $e55 () (_ BitVec 1) (bvand (bvnot $e7) (bvnot $e27)))
(define-fun $e56 () (_ BitVec 1) (bvand (bvnot $e54) (bvnot $e55)))
(define-fun $e57 () (_ BitVec 1) (bvand RESET_1 (bvnot VERNDACLOAD_0)))
(define-fun $e58 () (_ BitVec 1) (bvand (bvnot RESET_1) (bvnot $e56)))
(define-fun $e59 () (_ BitVec 1) (bvand $e6 (bvnot $e27)))
(define-fun $e60 () (_ BitVec 1) (bvand (bvnot $e6) $e57))
(assert (not (= (bvnot $e59) #b0)))
(assert (not (= (bvnot $e60) #b0)))
(assert (not (= (bvnot $e58) #b0)))
(check-sat)
(exit)
